731.86
0 44 35 21 5 54 2 38 10 48 16 18 50 33 4 43 12 27 63 62 9 29 56 66 72 53 37 40 14 58 19 11 7 13 74 69 42 34 30 52 24 28 3 6 51 71 20 31 45 36 57 15 23 1 32 64 65 47 60 73 49 39 41 70 17 59 8 55 67 22 68 26 25 46 61
